c This Formular is generated by mcnf
c
c    horn? no 
c    forced? no 
c    mixed sat? no 
c    clause length = 3 
c
p cnf 20  91 
 -19 2 16 0
10 -4 -19 0
7 -20 15 0
16 11 -9 0
15 5 6 0
10 8 3 0
-13 10 11 0
-18 -4 2 0
-15 7 -4 0
18 -11 20 0
-13 16 15 0
-4 -11 18 0
11 -18 -6 0
4 -1 -7 0
6 -11 -3 0
14 9 -11 0
-16 -5 -3 0
18 -10 15 0
17 -4 9 0
-15 17 13 0
13 16 -17 0
%
0

90 3 69 35 39 9 9 19 69 92 83 68 43 21 82 25 39 49 76 4
